Traveling Salesman Problem/TSP_generados/Aleatorio1620395125_17.tsp
NAME: Aleatorio1620395125_17.tsp
COMMENT: Randomly generated scenario
TYPE: TSP
DIMENSION: 17
EDGE_WEIGHT_TYPE: ATT
NODE_COORD_SECTION
1 3.42 40.86
2 25.04 12.07
3 38.61 13.13
4 17.41 30.49
5 38.47 46.79
6 24.54 43.3
7 26.98 41.61
8 9.1 0.14
9 47.75 17.54
10 14.91 8.59
11 41.04 7.13
12 41.7 37.89
13 1.75 42.56
14 10.69 42.36
15 16.02 38.29
16 17.71 35.05
17 26.5 9.35
