Traveling Salesman Problem/TSP_generados/Aleatorio1620395125_17.opt.tour
NAME: Aleatorio1620395125_17.opt.tour
COMMENT: Optimal solution for Aleatorio1620395125_17 (179.18494819271717)
TYPE: TOUR
DIMENSION: 17
TOUR_SECTION
1 15 16 4 10 8 2 17 11 3 9 12 5 7 6 14 13
-1
EOF
